<?xml version="1.0" encoding="UTF-8"?><osil xmlns="os.optimizationservices.org"   xmlns:xsi="http://www.w3.org/2001/XMLSchema-instance" xsi:schemaLocation="os.optimizationservices.org http://www.optimizationservices.org/schemas/2.0/OSiL.xsd" ><instanceHeader><name>q_30_0_100_2</name></instanceHeader><instanceData><variables numberOfVariables="30"><var name="x1" ub="1"/><var name="x2" ub="1"/><var name="x3" ub="1"/><var name="x4" ub="1"/><var name="x5" ub="1"/><var name="x6" ub="1"/><var name="x7" ub="1"/><var name="x8" ub="1"/><var name="x9" ub="1"/><var name="x10" ub="1"/><var name="x11" ub="1"/><var name="x12" ub="1"/><var name="x13" ub="1"/><var name="x14" ub="1"/><var name="x15" ub="1"/><var name="x16" ub="1"/><var name="x17" ub="1"/><var name="x18" ub="1"/><var name="x19" ub="1"/><var name="x20" ub="1"/><var name="x21" ub="1"/><var name="x22" ub="1"/><var name="x23" ub="1"/><var name="x24" ub="1"/><var name="x25" ub="1"/><var name="x26" ub="1"/><var name="x27" ub="1"/><var name="x28" ub="1"/><var name="x29" ub="1"/><var name="x30" ub="1"/></variables><objectives numberOfObjectives="1"><obj maxOrMin="min" name="defObj_x31" numberOfObjCoef="30"><coef idx="0">-.7306</coef><coef idx="1">-.2797</coef><coef idx="2">-.7742</coef><coef idx="3">.2634</coef><coef idx="4">-.6882</coef><coef idx="5">-.1916</coef><coef idx="6">-.6292</coef><coef idx="7">.3706</coef><coef idx="8">.2252</coef><coef idx="9">-.5111</coef><coef idx="10">-.7106</coef><coef idx="11">.436</coef><coef idx="12">.6397</coef><coef idx="13">-.7626</coef><coef idx="14">-.7465</coef><coef idx="15">-.4273</coef><coef idx="16">.9735</coef><coef idx="17">-.5091</coef><coef idx="18">-2.17e-2</coef><coef idx="19">-.9406</coef><coef idx="20">-.5301</coef><coef idx="21">-9.25e-2</coef><coef idx="22">-.4232</coef><coef idx="23">.4301</coef><coef idx="24">-.1282</coef><coef idx="25">.2232</coef><coef idx="26">.124</coef><coef idx="27">-.3137</coef><coef idx="28">.5432</coef><coef idx="29">-3.7e-3</coef></obj></objectives><quadraticCoefficients  numberOfQuadraticTerms="465" ><qTerm  idx="-1"  idxOne="0"  idxTwo="0"  coef=".9405"/><qTerm  idx="-1"  idxOne="0"  idxTwo="1"  coef="-.2474"/><qTerm  idx="-1"  idxOne="0"  idxTwo="2"  coef=".2668"/><qTerm  idx="-1"  idxOne="0"  idxTwo="3"  coef="-.7262"/><qTerm  idx="-1"  idxOne="0"  idxTwo="4"  coef=".5369"/><qTerm  idx="-1"  idxOne="0"  idxTwo="5"  coef="-.7976"/><qTerm  idx="-1"  idxOne="0"  idxTwo="6"  coef=".1039"/><qTerm  idx="-1"  idxOne="0"  idxTwo="7"  coef=".6633"/><qTerm  idx="-1"  idxOne="0"  idxTwo="8"  coef="-.2455"/><qTerm  idx="-1"  idxOne="0"  idxTwo="9"  coef=".7355"/><qTerm  idx="-1"  idxOne="0"  idxTwo="10"  coef=".2493"/><qTerm  idx="-1"  idxOne="0"  idxTwo="11"  coef=".1046"/><qTerm  idx="-1"  idxOne="0"  idxTwo="12"  coef="-.5768"/><qTerm  idx="-1"  idxOne="0"  idxTwo="13"  coef=".6454"/><qTerm  idx="-1"  idxOne="0"  idxTwo="14"  coef="-.2728"/><qTerm  idx="-1"  idxOne="0"  idxTwo="15"  coef="-.539"/><qTerm  idx="-1"  idxOne="0"  idxTwo="16"  coef="-.3418"/><qTerm  idx="-1"  idxOne="0"  idxTwo="17"  coef=".3602"/><qTerm  idx="-1"  idxOne="0"  idxTwo="18"  coef="-.1419"/><qTerm  idx="-1"  idxOne="0"  idxTwo="19"  coef="-9.54e-2"/><qTerm  idx="-1"  idxOne="0"  idxTwo="20"  coef=".8552"/><qTerm  idx="-1"  idxOne="0"  idxTwo="21"  coef="-.1075"/><qTerm  idx="-1"  idxOne="0"  idxTwo="22"  coef=".3345"/><qTerm  idx="-1"  idxOne="0"  idxTwo="23"  coef=".5617"/><qTerm  idx="-1"  idxOne="0"  idxTwo="24"  coef=".5817"/><qTerm  idx="-1"  idxOne="0"  idxTwo="25"  coef="-.6045"/><qTerm  idx="-1"  idxOne="0"  idxTwo="26"  coef="-.4872"/><qTerm  idx="-1"  idxOne="0"  idxTwo="27"  coef=".3536"/><qTerm  idx="-1"  idxOne="0"  idxTwo="28"  coef=".7971"/><qTerm  idx="-1"  idxOne="0"  idxTwo="29"  coef="-.25"/><qTerm  idx="-1"  idxOne="1"  idxTwo="1"  coef="-.9599"/><qTerm  idx="-1"  idxOne="1"  idxTwo="2"  coef="-.196"/><qTerm  idx="-1"  idxOne="1"  idxTwo="3"  coef=".9819"/><qTerm  idx="-1"  idxOne="1"  idxTwo="4"  coef=".9495"/><qTerm  idx="-1"  idxOne="1"  idxTwo="5"  coef=".9406"/><qTerm  idx="-1"  idxOne="1"  idxTwo="6"  coef=".9377"/><qTerm  idx="-1"  idxOne="1"  idxTwo="7"  coef="-.2505"/><qTerm  idx="-1"  idxOne="1"  idxTwo="8"  coef="-.8054"/><qTerm  idx="-1"  idxOne="1"  idxTwo="9"  coef=".5014"/><qTerm  idx="-1"  idxOne="1"  idxTwo="10"  coef=".649"/><qTerm  idx="-1"  idxOne="1"  idxTwo="11"  coef=".4489"/><qTerm  idx="-1"  idxOne="1"  idxTwo="12"  coef="-.2659"/><qTerm  idx="-1"  idxOne="1"  idxTwo="13"  coef=".2441"/><qTerm  idx="-1"  idxOne="1"  idxTwo="14"  coef="-.3874"/><qTerm  idx="-1"  idxOne="1"  idxTwo="15"  coef="-.3974"/><qTerm  idx="-1"  idxOne="1"  idxTwo="16"  coef=".3528"/><qTerm  idx="-1"  idxOne="1"  idxTwo="17"  coef=".6601"/><qTerm  idx="-1"  idxOne="1"  idxTwo="18"  coef=".1126"/><qTerm  idx="-1"  idxOne="1"  idxTwo="19"  coef=".1189"/><qTerm  idx="-1"  idxOne="1"  idxTwo="20"  coef="-.3444"/><qTerm  idx="-1"  idxOne="1"  idxTwo="21"  coef=".4614"/><qTerm  idx="-1"  idxOne="1"  idxTwo="22"  coef="-.6835"/><qTerm  idx="-1"  idxOne="1"  idxTwo="23"  coef="6.58e-2"/><qTerm  idx="-1"  idxOne="1"  idxTwo="24"  coef=".5684"/><qTerm  idx="-1"  idxOne="1"  idxTwo="25"  coef="-.5684"/><qTerm  idx="-1"  idxOne="1"  idxTwo="26"  coef="-.3494"/><qTerm  idx="-1"  idxOne="1"  idxTwo="27"  coef="2.9e-3"/><qTerm  idx="-1"  idxOne="1"  idxTwo="28"  coef="-.5542"/><qTerm  idx="-1"  idxOne="1"  idxTwo="29"  coef="-6.7e-2"/><qTerm  idx="-1"  idxOne="2"  idxTwo="2"  coef="-.6264"/><qTerm  idx="-1"  idxOne="2"  idxTwo="3"  coef="-.6098"/><qTerm  idx="-1"  idxOne="2"  idxTwo="4"  coef="-.5862"/><qTerm  idx="-1"  idxOne="2"  idxTwo="5"  coef=".8116"/><qTerm  idx="-1"  idxOne="2"  idxTwo="6"  coef=".5998"/><qTerm  idx="-1"  idxOne="2"  idxTwo="7"  coef=".4699"/><qTerm  idx="-1"  idxOne="2"  idxTwo="8"  coef="-.1693"/><qTerm  idx="-1"  idxOne="2"  idxTwo="9"  coef=".622"/><qTerm  idx="-1"  idxOne="2"  idxTwo="10"  coef=".9767"/><qTerm  idx="-1"  idxOne="2"  idxTwo="11"  coef="-1.78e-2"/><qTerm  idx="-1"  idxOne="2"  idxTwo="12"  coef="-.5614"/><qTerm  idx="-1"  idxOne="2"  idxTwo="13"  coef=".5238"/><qTerm  idx="-1"  idxOne="2"  idxTwo="14"  coef=".8146"/><qTerm  idx="-1"  idxOne="2"  idxTwo="15"  coef=".1793"/><qTerm  idx="-1"  idxOne="2"  idxTwo="16"  coef=".7412"/><qTerm  idx="-1"  idxOne="2"  idxTwo="17"  coef="-.9228"/><qTerm  idx="-1"  idxOne="2"  idxTwo="18"  coef=".8761"/><qTerm  idx="-1"  idxOne="2"  idxTwo="19"  coef="-.9062"/><qTerm  idx="-1"  idxOne="2"  idxTwo="20"  coef=".7942"/><qTerm  idx="-1"  idxOne="2"  idxTwo="21"  coef="-.9605"/><qTerm  idx="-1"  idxOne="2"  idxTwo="22"  coef=".9985"/><qTerm  idx="-1"  idxOne="2"  idxTwo="23"  coef=".9604"/><qTerm  idx="-1"  idxOne="2"  idxTwo="24"  coef=".2233"/><qTerm  idx="-1"  idxOne="2"  idxTwo="25"  coef=".1751"/><qTerm  idx="-1"  idxOne="2"  idxTwo="26"  coef=".9245"/><qTerm  idx="-1"  idxOne="2"  idxTwo="27"  coef=".7868"/><qTerm  idx="-1"  idxOne="2"  idxTwo="28"  coef="-.5956"/><qTerm  idx="-1"  idxOne="2"  idxTwo="29"  coef="-.9745"/><qTerm  idx="-1"  idxOne="3"  idxTwo="3"  coef="-.49"/><qTerm  idx="-1"  idxOne="3"  idxTwo="4"  coef=".7809"/><qTerm  idx="-1"  idxOne="3"  idxTwo="5"  coef="-.4609"/><qTerm  idx="-1"  idxOne="3"  idxTwo="6"  coef=".778"/><qTerm  idx="-1"  idxOne="3"  idxTwo="7"  coef="3.83e-2"/><qTerm  idx="-1"  idxOne="3"  idxTwo="8"  coef="-.2656"/><qTerm  idx="-1"  idxOne="3"  idxTwo="9"  coef=".9676"/><qTerm  idx="-1"  idxOne="3"  idxTwo="10"  coef=".7539"/><qTerm  idx="-1"  idxOne="3"  idxTwo="11"  coef=".3629"/><qTerm  idx="-1"  idxOne="3"  idxTwo="12"  coef="-.2751"/><qTerm  idx="-1"  idxOne="3"  idxTwo="13"  coef="-.6036"/><qTerm  idx="-1"  idxOne="3"  idxTwo="14"  coef="-.6255"/><qTerm  idx="-1"  idxOne="3"  idxTwo="15"  coef=".9753"/><qTerm  idx="-1"  idxOne="3"  idxTwo="16"  coef="-.6347"/><qTerm  idx="-1"  idxOne="3"  idxTwo="17"  coef="-.9763"/><qTerm  idx="-1"  idxOne="3"  idxTwo="18"  coef=".8874"/><qTerm  idx="-1"  idxOne="3"  idxTwo="19"  coef="-1.61e-2"/><qTerm  idx="-1"  idxOne="3"  idxTwo="20"  coef=".9611"/><qTerm  idx="-1"  idxOne="3"  idxTwo="21"  coef=".2266"/><qTerm  idx="-1"  idxOne="3"  idxTwo="22"  coef="-.2746"/><qTerm  idx="-1"  idxOne="3"  idxTwo="23"  coef="6.48e-2"/><qTerm  idx="-1"  idxOne="3"  idxTwo="24"  coef="-.7084"/><qTerm  idx="-1"  idxOne="3"  idxTwo="25"  coef="-.7343"/><qTerm  idx="-1"  idxOne="3"  idxTwo="26"  coef="-.2376"/><qTerm  idx="-1"  idxOne="3"  idxTwo="27"  coef=".4007"/><qTerm  idx="-1"  idxOne="3"  idxTwo="28"  coef="9.95e-2"/><qTerm  idx="-1"  idxOne="3"  idxTwo="29"  coef=".6511"/><qTerm  idx="-1"  idxOne="4"  idxTwo="4"  coef="7.47e-2"/><qTerm  idx="-1"  idxOne="4"  idxTwo="5"  coef=".3247"/><qTerm  idx="-1"  idxOne="4"  idxTwo="6"  coef="-.8937"/><qTerm  idx="-1"  idxOne="4"  idxTwo="7"  coef="-.6571"/><qTerm  idx="-1"  idxOne="4"  idxTwo="8"  coef=".2373"/><qTerm  idx="-1"  idxOne="4"  idxTwo="9"  coef=".5175"/><qTerm  idx="-1"  idxOne="4"  idxTwo="10"  coef=".8201"/><qTerm  idx="-1"  idxOne="4"  idxTwo="11"  coef=".428"/><qTerm  idx="-1"  idxOne="4"  idxTwo="12"  coef=".48"/><qTerm  idx="-1"  idxOne="4"  idxTwo="13"  coef="-.2866"/><qTerm  idx="-1"  idxOne="4"  idxTwo="14"  coef=".6437"/><qTerm  idx="-1"  idxOne="4"  idxTwo="15"  coef=".1041"/><qTerm  idx="-1"  idxOne="4"  idxTwo="16"  coef=".3016"/><qTerm  idx="-1"  idxOne="4"  idxTwo="17"  coef="-.6249"/><qTerm  idx="-1"  idxOne="4"  idxTwo="18"  coef=".6366"/><qTerm  idx="-1"  idxOne="4"  idxTwo="19"  coef="-.9552"/><qTerm  idx="-1"  idxOne="4"  idxTwo="20"  coef=".3144"/><qTerm  idx="-1"  idxOne="4"  idxTwo="21"  coef="-.7607"/><qTerm  idx="-1"  idxOne="4"  idxTwo="22"  coef="-.2293"/><qTerm  idx="-1"  idxOne="4"  idxTwo="23"  coef="-.5147"/><qTerm  idx="-1"  idxOne="4"  idxTwo="24"  coef=".9307"/><qTerm  idx="-1"  idxOne="4"  idxTwo="25"  coef="-2.94e-2"/><qTerm  idx="-1"  idxOne="4"  idxTwo="26"  coef=".9847"/><qTerm  idx="-1"  idxOne="4"  idxTwo="27"  coef="-.4374"/><qTerm  idx="-1"  idxOne="4"  idxTwo="28"  coef=".9569"/><qTerm  idx="-1"  idxOne="4"  idxTwo="29"  coef=".9057"/><qTerm  idx="-1"  idxOne="5"  idxTwo="5"  coef="-.5138"/><qTerm  idx="-1"  idxOne="5"  idxTwo="6"  coef="-.1668"/><qTerm  idx="-1"  idxOne="5"  idxTwo="7"  coef=".4716"/><qTerm  idx="-1"  idxOne="5"  idxTwo="8"  coef="-.6094"/><qTerm  idx="-1"  idxOne="5"  idxTwo="9"  coef=".2787"/><qTerm  idx="-1"  idxOne="5"  idxTwo="10"  coef=".2594"/><qTerm  idx="-1"  idxOne="5"  idxTwo="11"  coef="-.7943"/><qTerm  idx="-1"  idxOne="5"  idxTwo="12"  coef="-.7225"/><qTerm  idx="-1"  idxOne="5"  idxTwo="13"  coef="-9.02e-2"/><qTerm  idx="-1"  idxOne="5"  idxTwo="14"  coef=".9687"/><qTerm  idx="-1"  idxOne="5"  idxTwo="15"  coef="-.1502"/><qTerm  idx="-1"  idxOne="5"  idxTwo="16"  coef=".4096"/><qTerm  idx="-1"  idxOne="5"  idxTwo="17"  coef="-.2692"/><qTerm  idx="-1"  idxOne="5"  idxTwo="18"  coef="-.5992"/><qTerm  idx="-1"  idxOne="5"  idxTwo="19"  coef="-.1808"/><qTerm  idx="-1"  idxOne="5"  idxTwo="20"  coef="-.5216"/><qTerm  idx="-1"  idxOne="5"  idxTwo="21"  coef=".41"/><qTerm  idx="-1"  idxOne="5"  idxTwo="22"  coef="-.8418"/><qTerm  idx="-1"  idxOne="5"  idxTwo="23"  coef="-.5924"/><qTerm  idx="-1"  idxOne="5"  idxTwo="24"  coef="-.9653"/><qTerm  idx="-1"  idxOne="5"  idxTwo="25"  coef="-.3314"/><qTerm  idx="-1"  idxOne="5"  idxTwo="26"  coef="-.4303"/><qTerm  idx="-1"  idxOne="5"  idxTwo="27"  coef=".6908"/><qTerm  idx="-1"  idxOne="5"  idxTwo="28"  coef="-1.11e-2"/><qTerm  idx="-1"  idxOne="5"  idxTwo="29"  coef=".4202"/><qTerm  idx="-1"  idxOne="6"  idxTwo="6"  coef="-.4907"/><qTerm  idx="-1"  idxOne="6"  idxTwo="7"  coef=".6454"/><qTerm  idx="-1"  idxOne="6"  idxTwo="8"  coef="-.4368"/><qTerm  idx="-1"  idxOne="6"  idxTwo="9"  coef=".2496"/><qTerm  idx="-1"  idxOne="6"  idxTwo="10"  coef=".4916"/><qTerm  idx="-1"  idxOne="6"  idxTwo="11"  coef=".7479"/><qTerm  idx="-1"  idxOne="6"  idxTwo="12"  coef="-.7442"/><qTerm  idx="-1"  idxOne="6"  idxTwo="13"  coef="-.4416"/><qTerm  idx="-1"  idxOne="6"  idxTwo="14"  coef=".847"/><qTerm  idx="-1"  idxOne="6"  idxTwo="15"  coef=".9726"/><qTerm  idx="-1"  idxOne="6"  idxTwo="16"  coef=".5786"/><qTerm  idx="-1"  idxOne="6"  idxTwo="17"  coef="-.3041"/><qTerm  idx="-1"  idxOne="6"  idxTwo="18"  coef=".5286"/><qTerm  idx="-1"  idxOne="6"  idxTwo="19"  coef="-.6138"/><qTerm  idx="-1"  idxOne="6"  idxTwo="20"  coef="-.8712"/><qTerm  idx="-1"  idxOne="6"  idxTwo="21"  coef="-.9096"/><qTerm  idx="-1"  idxOne="6"  idxTwo="22"  coef="-.707"/><qTerm  idx="-1"  idxOne="6"  idxTwo="23"  coef=".6138"/><qTerm  idx="-1"  idxOne="6"  idxTwo="24"  coef=".312"/><qTerm  idx="-1"  idxOne="6"  idxTwo="25"  coef="-.5107"/><qTerm  idx="-1"  idxOne="6"  idxTwo="26"  coef="-.3513"/><qTerm  idx="-1"  idxOne="6"  idxTwo="27"  coef=".9673"/><qTerm  idx="-1"  idxOne="6"  idxTwo="28"  coef=".2275"/><qTerm  idx="-1"  idxOne="6"  idxTwo="29"  coef="-.415"/><qTerm  idx="-1"  idxOne="7"  idxTwo="7"  coef="-8.9e-3"/><qTerm  idx="-1"  idxOne="7"  idxTwo="8"  coef=".4723"/><qTerm  idx="-1"  idxOne="7"  idxTwo="9"  coef="-.9209"/><qTerm  idx="-1"  idxOne="7"  idxTwo="10"  coef="-.9687"/><qTerm  idx="-1"  idxOne="7"  idxTwo="11"  coef="-4.3e-2"/><qTerm  idx="-1"  idxOne="7"  idxTwo="12"  coef=".5532"/><qTerm  idx="-1"  idxOne="7"  idxTwo="13"  coef=".8139"/><qTerm  idx="-1"  idxOne="7"  idxTwo="14"  coef=".8304"/><qTerm  idx="-1"  idxOne="7"  idxTwo="15"  coef="-.3323"/><qTerm  idx="-1"  idxOne="7"  idxTwo="16"  coef="-.4014"/><qTerm  idx="-1"  idxOne="7"  idxTwo="17"  coef=".6574"/><qTerm  idx="-1"  idxOne="7"  idxTwo="18"  coef="-8.13e-2"/><qTerm  idx="-1"  idxOne="7"  idxTwo="19"  coef="-.9703"/><qTerm  idx="-1"  idxOne="7"  idxTwo="20"  coef="-.3218"/><qTerm  idx="-1"  idxOne="7"  idxTwo="21"  coef="-.8836"/><qTerm  idx="-1"  idxOne="7"  idxTwo="22"  coef="-.8145"/><qTerm  idx="-1"  idxOne="7"  idxTwo="23"  coef=".3035"/><qTerm  idx="-1"  idxOne="7"  idxTwo="24"  coef="-.2096"/><qTerm  idx="-1"  idxOne="7"  idxTwo="25"  coef=".2399"/><qTerm  idx="-1"  idxOne="7"  idxTwo="26"  coef=".6504"/><qTerm  idx="-1"  idxOne="7"  idxTwo="27"  coef="-.3218"/><qTerm  idx="-1"  idxOne="7"  idxTwo="28"  coef="-.3831"/><qTerm  idx="-1"  idxOne="7"  idxTwo="29"  coef="-.2782"/><qTerm  idx="-1"  idxOne="8"  idxTwo="8"  coef="-.1766"/><qTerm  idx="-1"  idxOne="8"  idxTwo="9"  coef="-7.81e-2"/><qTerm  idx="-1"  idxOne="8"  idxTwo="10"  coef="-.2352"/><qTerm  idx="-1"  idxOne="8"  idxTwo="11"  coef=".2862"/><qTerm  idx="-1"  idxOne="8"  idxTwo="12"  coef="-.5167"/><qTerm  idx="-1"  idxOne="8"  idxTwo="13"  coef=".4314"/><qTerm  idx="-1"  idxOne="8"  idxTwo="14"  coef=".7136"/><qTerm  idx="-1"  idxOne="8"  idxTwo="15"  coef="-.6721"/><qTerm  idx="-1"  idxOne="8"  idxTwo="16"  coef=".4626"/><qTerm  idx="-1"  idxOne="8"  idxTwo="17"  coef="1.98e-2"/><qTerm  idx="-1"  idxOne="8"  idxTwo="18"  coef="-.4397"/><qTerm  idx="-1"  idxOne="8"  idxTwo="19"  coef=".9861"/><qTerm  idx="-1"  idxOne="8"  idxTwo="20"  coef=".5225"/><qTerm  idx="-1"  idxOne="8"  idxTwo="21"  coef="-.9346"/><qTerm  idx="-1"  idxOne="8"  idxTwo="22"  coef=".4133"/><qTerm  idx="-1"  idxOne="8"  idxTwo="23"  coef=".3442"/><qTerm  idx="-1"  idxOne="8"  idxTwo="24"  coef="-.8199"/><qTerm  idx="-1"  idxOne="8"  idxTwo="25"  coef="-7.76e-2"/><qTerm  idx="-1"  idxOne="8"  idxTwo="26"  coef="-.4723"/><qTerm  idx="-1"  idxOne="8"  idxTwo="27"  coef="-.289"/><qTerm  idx="-1"  idxOne="8"  idxTwo="28"  coef=".4463"/><qTerm  idx="-1"  idxOne="8"  idxTwo="29"  coef="-.9454"/><qTerm  idx="-1"  idxOne="9"  idxTwo="9"  coef=".1697"/><qTerm  idx="-1"  idxOne="9"  idxTwo="10"  coef=".3885"/><qTerm  idx="-1"  idxOne="9"  idxTwo="11"  coef="-.7786"/><qTerm  idx="-1"  idxOne="9"  idxTwo="12"  coef="5.25e-2"/><qTerm  idx="-1"  idxOne="9"  idxTwo="13"  coef=".9874"/><qTerm  idx="-1"  idxOne="9"  idxTwo="14"  coef=".4525"/><qTerm  idx="-1"  idxOne="9"  idxTwo="15"  coef=".521"/><qTerm  idx="-1"  idxOne="9"  idxTwo="16"  coef="-.5928"/><qTerm  idx="-1"  idxOne="9"  idxTwo="17"  coef=".7265"/><qTerm  idx="-1"  idxOne="9"  idxTwo="18"  coef="-.615"/><qTerm  idx="-1"  idxOne="9"  idxTwo="19"  coef="-.8237"/><qTerm  idx="-1"  idxOne="9"  idxTwo="20"  coef="-.5174"/><qTerm  idx="-1"  idxOne="9"  idxTwo="21"  coef=".821"/><qTerm  idx="-1"  idxOne="9"  idxTwo="22"  coef=".6597"/><qTerm  idx="-1"  idxOne="9"  idxTwo="23"  coef="-.8449"/><qTerm  idx="-1"  idxOne="9"  idxTwo="24"  coef=".743"/><qTerm  idx="-1"  idxOne="9"  idxTwo="25"  coef=".1144"/><qTerm  idx="-1"  idxOne="9"  idxTwo="26"  coef="-.2056"/><qTerm  idx="-1"  idxOne="9"  idxTwo="27"  coef=".9986"/><qTerm  idx="-1"  idxOne="9"  idxTwo="28"  coef=".54"/><qTerm  idx="-1"  idxOne="9"  idxTwo="29"  coef=".5713"/><qTerm  idx="-1"  idxOne="10"  idxTwo="10"  coef=".5068"/><qTerm  idx="-1"  idxOne="10"  idxTwo="11"  coef=".1204"/><qTerm  idx="-1"  idxOne="10"  idxTwo="12"  coef=".3888"/><qTerm  idx="-1"  idxOne="10"  idxTwo="13"  coef=".7512"/><qTerm  idx="-1"  idxOne="10"  idxTwo="14"  coef="-.9713"/><qTerm  idx="-1"  idxOne="10"  idxTwo="15"  coef="-.4285"/><qTerm  idx="-1"  idxOne="10"  idxTwo="16"  coef="-.6373"/><qTerm  idx="-1"  idxOne="10"  idxTwo="17"  coef=".6154"/><qTerm  idx="-1"  idxOne="10"  idxTwo="18"  coef=".1051"/><qTerm  idx="-1"  idxOne="10"  idxTwo="19"  coef="-2.83e-2"/><qTerm  idx="-1"  idxOne="10"  idxTwo="20"  coef="7.35e-2"/><qTerm  idx="-1"  idxOne="10"  idxTwo="21"  coef="-.9093"/><qTerm  idx="-1"  idxOne="10"  idxTwo="22"  coef="-.7123"/><qTerm  idx="-1"  idxOne="10"  idxTwo="23"  coef=".5603"/><qTerm  idx="-1"  idxOne="10"  idxTwo="24"  coef=".5412"/><qTerm  idx="-1"  idxOne="10"  idxTwo="25"  coef="-.6809"/><qTerm  idx="-1"  idxOne="10"  idxTwo="26"  coef="-6.21e-2"/><qTerm  idx="-1"  idxOne="10"  idxTwo="27"  coef="-.674"/><qTerm  idx="-1"  idxOne="10"  idxTwo="28"  coef="9.77e-2"/><qTerm  idx="-1"  idxOne="10"  idxTwo="29"  coef="-.3899"/><qTerm  idx="-1"  idxOne="11"  idxTwo="11"  coef="-.6912"/><qTerm  idx="-1"  idxOne="11"  idxTwo="12"  coef=".15"/><qTerm  idx="-1"  idxOne="11"  idxTwo="13"  coef="-.7118"/><qTerm  idx="-1"  idxOne="11"  idxTwo="14"  coef="-.6134"/><qTerm  idx="-1"  idxOne="11"  idxTwo="15"  coef=".3822"/><qTerm  idx="-1"  idxOne="11"  idxTwo="16"  coef=".9004"/><qTerm  idx="-1"  idxOne="11"  idxTwo="17"  coef="-.7372"/><qTerm  idx="-1"  idxOne="11"  idxTwo="18"  coef=".42"/><qTerm  idx="-1"  idxOne="11"  idxTwo="19"  coef="-.2405"/><qTerm  idx="-1"  idxOne="11"  idxTwo="20"  coef="-.204"/><qTerm  idx="-1"  idxOne="11"  idxTwo="21"  coef="-.998"/><qTerm  idx="-1"  idxOne="11"  idxTwo="22"  coef="-.1736"/><qTerm  idx="-1"  idxOne="11"  idxTwo="23"  coef=".6076"/><qTerm  idx="-1"  idxOne="11"  idxTwo="24"  coef=".7557"/><qTerm  idx="-1"  idxOne="11"  idxTwo="25"  coef="-.7184"/><qTerm  idx="-1"  idxOne="11"  idxTwo="26"  coef="-.9139"/><qTerm  idx="-1"  idxOne="11"  idxTwo="27"  coef=".1313"/><qTerm  idx="-1"  idxOne="11"  idxTwo="28"  coef="-.8836"/><qTerm  idx="-1"  idxOne="11"  idxTwo="29"  coef=".7427"/><qTerm  idx="-1"  idxOne="12"  idxTwo="12"  coef="-.3114"/><qTerm  idx="-1"  idxOne="12"  idxTwo="13"  coef="-2.03e-2"/><qTerm  idx="-1"  idxOne="12"  idxTwo="14"  coef="-.4356"/><qTerm  idx="-1"  idxOne="12"  idxTwo="15"  coef="-.5229"/><qTerm  idx="-1"  idxOne="12"  idxTwo="16"  coef="9.93e-2"/><qTerm  idx="-1"  idxOne="12"  idxTwo="17"  coef=".4277"/><qTerm  idx="-1"  idxOne="12"  idxTwo="18"  coef=".8057"/><qTerm  idx="-1"  idxOne="12"  idxTwo="19"  coef=".5147"/><qTerm  idx="-1"  idxOne="12"  idxTwo="20"  coef="7.85e-2"/><qTerm  idx="-1"  idxOne="12"  idxTwo="21"  coef=".2918"/><qTerm  idx="-1"  idxOne="12"  idxTwo="22"  coef=".5539"/><qTerm  idx="-1"  idxOne="12"  idxTwo="23"  coef=".758"/><qTerm  idx="-1"  idxOne="12"  idxTwo="24"  coef=".2055"/><qTerm  idx="-1"  idxOne="12"  idxTwo="25"  coef="-.877"/><qTerm  idx="-1"  idxOne="12"  idxTwo="26"  coef="-.1218"/><qTerm  idx="-1"  idxOne="12"  idxTwo="27"  coef="-.9826"/><qTerm  idx="-1"  idxOne="12"  idxTwo="28"  coef="-.4008"/><qTerm  idx="-1"  idxOne="12"  idxTwo="29"  coef=".947"/><qTerm  idx="-1"  idxOne="13"  idxTwo="13"  coef=".9103"/><qTerm  idx="-1"  idxOne="13"  idxTwo="14"  coef="-.5734"/><qTerm  idx="-1"  idxOne="13"  idxTwo="15"  coef=".3479"/><qTerm  idx="-1"  idxOne="13"  idxTwo="16"  coef="7.23e-2"/><qTerm  idx="-1"  idxOne="13"  idxTwo="17"  coef="-.2806"/><qTerm  idx="-1"  idxOne="13"  idxTwo="18"  coef="-.9973"/><qTerm  idx="-1"  idxOne="13"  idxTwo="19"  coef=".6989"/><qTerm  idx="-1"  idxOne="13"  idxTwo="20"  coef="-.1571"/><qTerm  idx="-1"  idxOne="13"  idxTwo="21"  coef=".4957"/><qTerm  idx="-1"  idxOne="13"  idxTwo="22"  coef="-.9767"/><qTerm  idx="-1"  idxOne="13"  idxTwo="23"  coef=".2287"/><qTerm  idx="-1"  idxOne="13"  idxTwo="24"  coef="-.1111"/><qTerm  idx="-1"  idxOne="13"  idxTwo="25"  coef=".3253"/><qTerm  idx="-1"  idxOne="13"  idxTwo="26"  coef=".3775"/><qTerm  idx="-1"  idxOne="13"  idxTwo="27"  coef=".8783"/><qTerm  idx="-1"  idxOne="13"  idxTwo="28"  coef=".4335"/><qTerm  idx="-1"  idxOne="13"  idxTwo="29"  coef="-9.67e-2"/><qTerm  idx="-1"  idxOne="14"  idxTwo="14"  coef=".269"/><qTerm  idx="-1"  idxOne="14"  idxTwo="15"  coef="-.5516"/><qTerm  idx="-1"  idxOne="14"  idxTwo="16"  coef="-.2037"/><qTerm  idx="-1"  idxOne="14"  idxTwo="17"  coef=".6602"/><qTerm  idx="-1"  idxOne="14"  idxTwo="18"  coef="-.722"/><qTerm  idx="-1"  idxOne="14"  idxTwo="19"  coef=".5119"/><qTerm  idx="-1"  idxOne="14"  idxTwo="20"  coef=".586"/><qTerm  idx="-1"  idxOne="14"  idxTwo="21"  coef="-.5442"/><qTerm  idx="-1"  idxOne="14"  idxTwo="22"  coef="5.62e-2"/><qTerm  idx="-1"  idxOne="14"  idxTwo="23"  coef="-.7251"/><qTerm  idx="-1"  idxOne="14"  idxTwo="24"  coef="-.6521"/><qTerm  idx="-1"  idxOne="14"  idxTwo="25"  coef="-.7049"/><qTerm  idx="-1"  idxOne="14"  idxTwo="26"  coef=".62"/><qTerm  idx="-1"  idxOne="14"  idxTwo="27"  coef="-.497"/><qTerm  idx="-1"  idxOne="14"  idxTwo="28"  coef="-.1799"/><qTerm  idx="-1"  idxOne="14"  idxTwo="29"  coef=".9132"/><qTerm  idx="-1"  idxOne="15"  idxTwo="15"  coef=".4395"/><qTerm  idx="-1"  idxOne="15"  idxTwo="16"  coef=".6708"/><qTerm  idx="-1"  idxOne="15"  idxTwo="17"  coef=".5537"/><qTerm  idx="-1"  idxOne="15"  idxTwo="18"  coef="7.58e-2"/><qTerm  idx="-1"  idxOne="15"  idxTwo="19"  coef=".2226"/><qTerm  idx="-1"  idxOne="15"  idxTwo="20"  coef=".3882"/><qTerm  idx="-1"  idxOne="15"  idxTwo="21"  coef=".2014"/><qTerm  idx="-1"  idxOne="15"  idxTwo="22"  coef="-.8073"/><qTerm  idx="-1"  idxOne="15"  idxTwo="23"  coef="9.84e-2"/><qTerm  idx="-1"  idxOne="15"  idxTwo="24"  coef="-.4142"/><qTerm  idx="-1"  idxOne="15"  idxTwo="25"  coef="-.5883"/><qTerm  idx="-1"  idxOne="15"  idxTwo="26"  coef=".6861"/><qTerm  idx="-1"  idxOne="15"  idxTwo="27"  coef=".303"/><qTerm  idx="-1"  idxOne="15"  idxTwo="28"  coef=".9262"/><qTerm  idx="-1"  idxOne="15"  idxTwo="29"  coef=".2199"/><qTerm  idx="-1"  idxOne="16"  idxTwo="16"  coef="-.1922"/><qTerm  idx="-1"  idxOne="16"  idxTwo="17"  coef="-.7428"/><qTerm  idx="-1"  idxOne="16"  idxTwo="18"  coef="-.7244"/><qTerm  idx="-1"  idxOne="16"  idxTwo="19"  coef="-.5698"/><qTerm  idx="-1"  idxOne="16"  idxTwo="20"  coef="4.6e-2"/><qTerm  idx="-1"  idxOne="16"  idxTwo="21"  coef=".4195"/><qTerm  idx="-1"  idxOne="16"  idxTwo="22"  coef="4.48e-2"/><qTerm  idx="-1"  idxOne="16"  idxTwo="23"  coef="-.6311"/><qTerm  idx="-1"  idxOne="16"  idxTwo="24"  coef=".7262"/><qTerm  idx="-1"  idxOne="16"  idxTwo="25"  coef="-.3714"/><qTerm  idx="-1"  idxOne="16"  idxTwo="26"  coef="-.9939"/><qTerm  idx="-1"  idxOne="16"  idxTwo="27"  coef=".9992"/><qTerm  idx="-1"  idxOne="16"  idxTwo="28"  coef=".7608"/><qTerm  idx="-1"  idxOne="16"  idxTwo="29"  coef="-.5125"/><qTerm  idx="-1"  idxOne="17"  idxTwo="17"  coef="8.78e-2"/><qTerm  idx="-1"  idxOne="17"  idxTwo="18"  coef=".522"/><qTerm  idx="-1"  idxOne="17"  idxTwo="19"  coef=".3632"/><qTerm  idx="-1"  idxOne="17"  idxTwo="20"  coef="-.1574"/><qTerm  idx="-1"  idxOne="17"  idxTwo="21"  coef=".1895"/><qTerm  idx="-1"  idxOne="17"  idxTwo="22"  coef="-.1071"/><qTerm  idx="-1"  idxOne="17"  idxTwo="23"  coef=".889"/><qTerm  idx="-1"  idxOne="17"  idxTwo="24"  coef="-.6673"/><qTerm  idx="-1"  idxOne="17"  idxTwo="25"  coef=".9491"/><qTerm  idx="-1"  idxOne="17"  idxTwo="26"  coef="-.8262"/><qTerm  idx="-1"  idxOne="17"  idxTwo="27"  coef="-.6978"/><qTerm  idx="-1"  idxOne="17"  idxTwo="28"  coef=".8198"/><qTerm  idx="-1"  idxOne="17"  idxTwo="29"  coef="-.5889"/><qTerm  idx="-1"  idxOne="18"  idxTwo="18"  coef="-.5569"/><qTerm  idx="-1"  idxOne="18"  idxTwo="19"  coef="-.7317"/><qTerm  idx="-1"  idxOne="18"  idxTwo="20"  coef=".3949"/><qTerm  idx="-1"  idxOne="18"  idxTwo="21"  coef=".9541"/><qTerm  idx="-1"  idxOne="18"  idxTwo="22"  coef="-.9943"/><qTerm  idx="-1"  idxOne="18"  idxTwo="23"  coef="-1.16e-2"/><qTerm  idx="-1"  idxOne="18"  idxTwo="24"  coef="-.5047"/><qTerm  idx="-1"  idxOne="18"  idxTwo="25"  coef=".8051"/><qTerm  idx="-1"  idxOne="18"  idxTwo="26"  coef="-.7914"/><qTerm  idx="-1"  idxOne="18"  idxTwo="27"  coef=".5505"/><qTerm  idx="-1"  idxOne="18"  idxTwo="28"  coef="-.7908"/><qTerm  idx="-1"  idxOne="18"  idxTwo="29"  coef=".2414"/><qTerm  idx="-1"  idxOne="19"  idxTwo="19"  coef="-.3313"/><qTerm  idx="-1"  idxOne="19"  idxTwo="20"  coef=".9555"/><qTerm  idx="-1"  idxOne="19"  idxTwo="21"  coef=".3839"/><qTerm  idx="-1"  idxOne="19"  idxTwo="22"  coef=".6554"/><qTerm  idx="-1"  idxOne="19"  idxTwo="23"  coef=".9363"/><qTerm  idx="-1"  idxOne="19"  idxTwo="24"  coef="-.4451"/><qTerm  idx="-1"  idxOne="19"  idxTwo="25"  coef="-.2679"/><qTerm  idx="-1"  idxOne="19"  idxTwo="26"  coef="-.6916"/><qTerm  idx="-1"  idxOne="19"  idxTwo="27"  coef=".9618"/><qTerm  idx="-1"  idxOne="19"  idxTwo="28"  coef=".8635"/><qTerm  idx="-1"  idxOne="19"  idxTwo="29"  coef="-.5314"/><qTerm  idx="-1"  idxOne="20"  idxTwo="20"  coef="-.7532"/><qTerm  idx="-1"  idxOne="20"  idxTwo="21"  coef="-.2676"/><qTerm  idx="-1"  idxOne="20"  idxTwo="22"  coef=".6789"/><qTerm  idx="-1"  idxOne="20"  idxTwo="23"  coef="-.7484"/><qTerm  idx="-1"  idxOne="20"  idxTwo="24"  coef=".9799"/><qTerm  idx="-1"  idxOne="20"  idxTwo="25"  coef="-4.e-2"/><qTerm  idx="-1"  idxOne="20"  idxTwo="26"  coef=".9229"/><qTerm  idx="-1"  idxOne="20"  idxTwo="27"  coef=".9211"/><qTerm  idx="-1"  idxOne="20"  idxTwo="28"  coef=".5065"/><qTerm  idx="-1"  idxOne="20"  idxTwo="29"  coef=".2912"/><qTerm  idx="-1"  idxOne="21"  idxTwo="21"  coef=".3298"/><qTerm  idx="-1"  idxOne="21"  idxTwo="22"  coef=".7586"/><qTerm  idx="-1"  idxOne="21"  idxTwo="23"  coef=".4593"/><qTerm  idx="-1"  idxOne="21"  idxTwo="24"  coef=".3926"/><qTerm  idx="-1"  idxOne="21"  idxTwo="25"  coef="6.87e-2"/><qTerm  idx="-1"  idxOne="21"  idxTwo="26"  coef=".4976"/><qTerm  idx="-1"  idxOne="21"  idxTwo="27"  coef=".6535"/><qTerm  idx="-1"  idxOne="21"  idxTwo="28"  coef="-.9917"/><qTerm  idx="-1"  idxOne="21"  idxTwo="29"  coef="-.5502"/><qTerm  idx="-1"  idxOne="22"  idxTwo="22"  coef="-.1718"/><qTerm  idx="-1"  idxOne="22"  idxTwo="23"  coef=".2573"/><qTerm  idx="-1"  idxOne="22"  idxTwo="24"  coef="-.9025"/><qTerm  idx="-1"  idxOne="22"  idxTwo="25"  coef=".3264"/><qTerm  idx="-1"  idxOne="22"  idxTwo="26"  coef="-.6443"/><qTerm  idx="-1"  idxOne="22"  idxTwo="27"  coef=".1642"/><qTerm  idx="-1"  idxOne="22"  idxTwo="28"  coef=".9221"/><qTerm  idx="-1"  idxOne="22"  idxTwo="29"  coef="-.428"/><qTerm  idx="-1"  idxOne="23"  idxTwo="23"  coef="-.4399"/><qTerm  idx="-1"  idxOne="23"  idxTwo="24"  coef=".7566"/><qTerm  idx="-1"  idxOne="23"  idxTwo="25"  coef=".354"/><qTerm  idx="-1"  idxOne="23"  idxTwo="26"  coef="-.5276"/><qTerm  idx="-1"  idxOne="23"  idxTwo="27"  coef="-.6272"/><qTerm  idx="-1"  idxOne="23"  idxTwo="28"  coef="-.8758"/><qTerm  idx="-1"  idxOne="23"  idxTwo="29"  coef="-.6662"/><qTerm  idx="-1"  idxOne="24"  idxTwo="24"  coef="-.5727"/><qTerm  idx="-1"  idxOne="24"  idxTwo="25"  coef="-.1467"/><qTerm  idx="-1"  idxOne="24"  idxTwo="26"  coef="-.8066"/><qTerm  idx="-1"  idxOne="24"  idxTwo="27"  coef="-.53"/><qTerm  idx="-1"  idxOne="24"  idxTwo="28"  coef="-.7406"/><qTerm  idx="-1"  idxOne="24"  idxTwo="29"  coef=".8858"/><qTerm  idx="-1"  idxOne="25"  idxTwo="25"  coef="-.3289"/><qTerm  idx="-1"  idxOne="25"  idxTwo="26"  coef="-.8604"/><qTerm  idx="-1"  idxOne="25"  idxTwo="27"  coef="-1.48e-2"/><qTerm  idx="-1"  idxOne="25"  idxTwo="28"  coef=".3933"/><qTerm  idx="-1"  idxOne="25"  idxTwo="29"  coef=".4846"/><qTerm  idx="-1"  idxOne="26"  idxTwo="26"  coef="-.7567"/><qTerm  idx="-1"  idxOne="26"  idxTwo="27"  coef="8.3e-2"/><qTerm  idx="-1"  idxOne="26"  idxTwo="28"  coef="-9.85e-2"/><qTerm  idx="-1"  idxOne="26"  idxTwo="29"  coef=".3703"/><qTerm  idx="-1"  idxOne="27"  idxTwo="27"  coef=".6679"/><qTerm  idx="-1"  idxOne="27"  idxTwo="28"  coef=".8643"/><qTerm  idx="-1"  idxOne="27"  idxTwo="29"  coef=".533"/><qTerm  idx="-1"  idxOne="28"  idxTwo="28"  coef=".1871"/><qTerm  idx="-1"  idxOne="28"  idxTwo="29"  coef="-.1905"/><qTerm  idx="-1"  idxOne="29"  idxTwo="29"  coef=".9994"/></quadraticCoefficients></instanceData></osil>
